0000000000000000
0000000000000000
0000000000000000
0000111111100000
0011000000110000
0010000110011000
0000011001110000
0000001111100000
0000000000110000
0000000000110000
0000000000110000
0000000000110000
0000000000110000
0000000000000000
0000000000000000
0000000000000000
